2172 : 21120 
22405 : 18015 8257 
1467 : 9644 21120 
18015 : 15755 22405 
22046 : 17381 15719 
17381 : 22046 4300 
15755 : 19437 18015 
21120 : 1467 2172 
4300 : 17381 8257 
8257 : 4300 18895 22405 
19437 : 9992 15755 
2849 : 750 
15719 : 22046 9644 
9644 : 15719 1467 
18895 : 8257 
9992 : 19437 4111 
4111 : 9992 19375 
19375 : 4111 750 
750 : 19375 2849 
19437 2849 18895 2172 22046 
